0 472992 
1 472304 
2 471594 
3 469210 
4 468386 
5 465060 
6 464958 
7 462370 
8 460600 
9 460310 
10 458714 
11 456176 
12 455336 
13 455210 
14 452130 
15 448920 
16 448434 
17 448384 
18 446978 
19 442378 
20 438908 
21 436664 
22 433782 
23 433048 
24 433032 
25 432328 
26 431992 
27 427030 
28 425292 
29 425170 
30 424936 
31 424680 
32 424036 
33 422908 
34 422684 
35 422300 
36 417784 
37 415890 
38 415308 
39 413026 
40 412584 
41 410070 
42 410012 
43 408372 
44 408090 
45 407836 
46 406288 
47 403720 
48 403410 
49 403130 
50 399856 
51 399166 
52 397984 
53 396542 
54 396298 
55 394430 
56 392632 
57 391274 
58 386620 
59 385036 
60 382650 
61 381546 
62 379840 
63 379550 
64 378940 
65 369792 
66 367658 
67 365776 
68 365776 

